p cnf 190 588
1 2 3 4 5 0
-6 7 0
-7 8 0
-8 9 0
-1 6 0
-2 -6 0
-2 7 0
-3 -7 0
-3 8 0
-4 -8 0
-4 9 0
-5 -9 0
10 0
12 13 14 15 16 0
-17 18 0
-18 19 0
-19 20 0
-12 17 0
-13 -17 0
-13 18 0
-14 -18 0
-14 19 0
-15 -19 0
-15 20 0
-16 -20 0
21 22 23 24 25 0
-26 27 0
-27 28 0
-28 29 0
-21 26 0
-22 -26 0
-22 27 0
-23 -27 0
-23 28 0
-24 -28 0
-24 29 0
-25 -29 0
30 31 32 33 34 0
-35 36 0
-36 37 0
-37 38 0
-30 35 0
-31 -35 0
-31 36 0
-32 -36 0
-32 37 0
-33 -37 0
-33 38 0
-34 -38 0
-1 -10 0
-1 -12 0
-2 -13 0
-3 -14 0
-4 -15 0
-5 -16 0
-10 -12 0
-1 -21 0
-2 -22 0
-3 -23 0
-4 -24 0
-5 -25 0
-10 -21 0
-12 -21 0
-13 -22 0
-14 -23 0
-15 -24 0
-16 -25 0
-1 -30 0
-2 -31 0
-3 -32 0
-4 -33 0
-5 -34 0
-10 -30 0
-12 -30 0
-13 -31 0
-14 -32 0
-15 -33 0
-16 -34 0
-21 -30 0
-22 -31 0
-23 -32 0
-24 -33 0
-25 -34 0
39 40 41 42 43 0
-44 45 0
-45 46 0
-46 47 0
-39 44 0
-40 -44 0
-40 45 0
-41 -45 0
-41 46 0
-42 -46 0
-42 47 0
-43 -47 0
48 49 50 51 52 0
-53 54 0
-54 55 0
-55 56 0
-48 53 0
-49 -53 0
-49 54 0
-50 -54 0
-50 55 0
-51 -55 0
-51 56 0
-52 -56 0
57 0
59 0
61 62 63 64 65 0
-66 67 0
-67 68 0
-68 69 0
-61 66 0
-62 -66 0
-62 67 0
-63 -67 0
-63 68 0
-64 -68 0
-64 69 0
-65 -69 0
-39 -48 0
-40 -49 0
-41 -50 0
-42 -51 0
-43 -52 0
-43 -57 0
-52 -57 0
-42 -59 0
-51 -59 0
-39 -61 0
-40 -62 0
-41 -63 0
-42 -64 0
-43 -65 0
-48 -61 0
-49 -62 0
-50 -63 0
-51 -64 0
-52 -65 0
-57 -65 0
-59 -64 0
70 71 72 73 74 0
-75 76 0
-76 77 0
-77 78 0
-70 75 0
-71 -75 0
-71 76 0
-72 -76 0
-72 77 0
-73 -77 0
-73 78 0
-74 -78 0
79 80 81 82 83 0
-84 85 0
-85 86 0
-86 87 0
-79 84 0
-80 -84 0
-80 85 0
-81 -85 0
-81 86 0
-82 -86 0
-82 87 0
-83 -87 0
88 89 90 91 92 0
-93 94 0
-94 95 0
-95 96 0
-88 93 0
-89 -93 0
-89 94 0
-90 -94 0
-90 95 0
-91 -95 0
-91 96 0
-92 -96 0
97 98 99 100 101 0
-102 103 0
-103 104 0
-104 105 0
-97 102 0
-98 -102 0
-98 103 0
-99 -103 0
-99 104 0
-100 -104 0
-100 105 0
-101 -105 0
106 0
-70 -79 0
-71 -80 0
-72 -81 0
-73 -82 0
-74 -83 0
-70 -88 0
-71 -89 0
-72 -90 0
-73 -91 0
-74 -92 0
-79 -88 0
-80 -89 0
-81 -90 0
-82 -91 0
-83 -92 0
-70 -97 0
-71 -98 0
-72 -99 0
-73 -100 0
-74 -101 0
-79 -97 0
-80 -98 0
-81 -99 0
-82 -100 0
-83 -101 0
-88 -97 0
-89 -98 0
-90 -99 0
-91 -100 0
-92 -101 0
-73 -106 0
-82 -106 0
-91 -106 0
-100 -106 0
108 109 110 111 112 0
-113 114 0
-114 115 0
-115 116 0
-108 113 0
-109 -113 0
-109 114 0
-110 -114 0
-110 115 0
-111 -115 0
-111 116 0
-112 -116 0
117 118 119 120 121 0
-122 123 0
-123 124 0
-124 125 0
-117 122 0
-118 -122 0
-118 123 0
-119 -123 0
-119 124 0
-120 -124 0
-120 125 0
-121 -125 0
126 127 128 129 130 0
-131 132 0
-132 133 0
-133 134 0
-126 131 0
-127 -131 0
-127 132 0
-128 -132 0
-128 133 0
-129 -133 0
-129 134 0
-130 -134 0
135 136 137 138 139 0
-140 141 0
-141 142 0
-142 143 0
-135 140 0
-136 -140 0
-136 141 0
-137 -141 0
-137 142 0
-138 -142 0
-138 143 0
-139 -143 0
144 145 146 147 148 0
-149 150 0
-150 151 0
-151 152 0
-144 149 0
-145 -149 0
-145 150 0
-146 -150 0
-146 151 0
-147 -151 0
-147 152 0
-148 -152 0
-108 -117 0
-109 -118 0
-110 -119 0
-111 -120 0
-112 -121 0
-108 -126 0
-109 -127 0
-110 -128 0
-111 -129 0
-112 -130 0
-117 -126 0
-118 -127 0
-119 -128 0
-120 -129 0
-121 -130 0
-108 -135 0
-109 -136 0
-110 -137 0
-111 -138 0
-112 -139 0
-117 -135 0
-118 -136 0
-119 -137 0
-120 -138 0
-121 -139 0
-126 -135 0
-127 -136 0
-128 -137 0
-129 -138 0
-130 -139 0
-108 -144 0
-109 -145 0
-110 -146 0
-111 -147 0
-112 -148 0
-117 -144 0
-118 -145 0
-119 -146 0
-120 -147 0
-121 -148 0
-126 -144 0
-127 -145 0
-128 -146 0
-129 -147 0
-130 -148 0
-135 -144 0
-136 -145 0
-137 -146 0
-138 -147 0
-139 -148 0
153 0
155 156 157 158 159 0
-160 161 0
-161 162 0
-162 163 0
-155 160 0
-156 -160 0
-156 161 0
-157 -161 0
-157 162 0
-158 -162 0
-158 163 0
-159 -163 0
164 165 166 167 168 0
-169 170 0
-170 171 0
-171 172 0
-164 169 0
-165 -169 0
-165 170 0
-166 -170 0
-166 171 0
-167 -171 0
-167 172 0
-168 -172 0
173 174 175 176 177 0
-178 179 0
-179 180 0
-180 181 0
-173 178 0
-174 -178 0
-174 179 0
-175 -179 0
-175 180 0
-176 -180 0
-176 181 0
-177 -181 0
182 183 184 185 186 0
-187 188 0
-188 189 0
-189 190 0
-182 187 0
-183 -187 0
-183 188 0
-184 -188 0
-184 189 0
-185 -189 0
-185 190 0
-186 -190 0
-153 -156 0
-153 -165 0
-155 -164 0
-156 -165 0
-157 -166 0
-158 -167 0
-159 -168 0
-153 -174 0
-155 -173 0
-156 -174 0
-157 -175 0
-158 -176 0
-159 -177 0
-164 -173 0
-165 -174 0
-166 -175 0
-167 -176 0
-168 -177 0
-153 -183 0
-155 -182 0
-156 -183 0
-157 -184 0
-158 -185 0
-159 -186 0
-164 -182 0
-165 -183 0
-166 -184 0
-167 -185 0
-168 -186 0
-173 -182 0
-174 -183 0
-175 -184 0
-176 -185 0
-177 -186 0
-1 -39 0
-2 -40 0
-3 -41 0
-4 -42 0
-5 -43 0
-1 -70 0
-2 -71 0
-3 -72 0
-4 -73 0
-5 -74 0
-39 -70 0
-40 -71 0
-41 -72 0
-42 -73 0
-43 -74 0
-1 -108 0
-2 -109 0
-3 -110 0
-4 -111 0
-5 -112 0
-39 -108 0
-40 -109 0
-41 -110 0
-42 -111 0
-43 -112 0
-70 -108 0
-71 -109 0
-72 -110 0
-73 -111 0
-74 -112 0
-2 -153 0
-40 -153 0
-71 -153 0
-109 -153 0
-10 -48 0
-10 -79 0
-48 -79 0
-49 -80 0
-50 -81 0
-51 -82 0
-52 -83 0
-10 -117 0
-48 -117 0
-49 -118 0
-50 -119 0
-51 -120 0
-52 -121 0
-79 -117 0
-80 -118 0
-81 -119 0
-82 -120 0
-83 -121 0
-10 -155 0
-48 -155 0
-49 -156 0
-50 -157 0
-51 -158 0
-52 -159 0
-79 -155 0
-80 -156 0
-81 -157 0
-82 -158 0
-83 -159 0
-117 -155 0
-118 -156 0
-119 -157 0
-120 -158 0
-121 -159 0
-16 -57 0
-12 -88 0
-13 -89 0
-14 -90 0
-15 -91 0
-16 -92 0
-57 -92 0
-12 -126 0
-13 -127 0
-14 -128 0
-15 -129 0
-16 -130 0
-57 -130 0
-88 -126 0
-89 -127 0
-90 -128 0
-91 -129 0
-92 -130 0
-12 -164 0
-13 -165 0
-14 -166 0
-15 -167 0
-16 -168 0
-57 -168 0
-88 -164 0
-89 -165 0
-90 -166 0
-91 -167 0
-92 -168 0
-126 -164 0
-127 -165 0
-128 -166 0
-129 -167 0
-130 -168 0
-24 -59 0
-21 -97 0
-22 -98 0
-23 -99 0
-24 -100 0
-25 -101 0
-59 -100 0
-21 -135 0
-22 -136 0
-23 -137 0
-24 -138 0
-25 -139 0
-59 -138 0
-97 -135 0
-98 -136 0
-99 -137 0
-100 -138 0
-101 -139 0
-21 -173 0
-22 -174 0
-23 -175 0
-24 -176 0
-25 -177 0
-59 -176 0
-97 -173 0
-98 -174 0
-99 -175 0
-100 -176 0
-101 -177 0
-135 -173 0
-136 -174 0
-137 -175 0
-138 -176 0
-139 -177 0
-30 -61 0
-31 -62 0
-32 -63 0
-33 -64 0
-34 -65 0
-33 -106 0
-64 -106 0
-30 -144 0
-31 -145 0
-32 -146 0
-33 -147 0
-34 -148 0
-61 -144 0
-62 -145 0
-63 -146 0
-64 -147 0
-65 -148 0
-106 -147 0
-30 -182 0
-31 -183 0
-32 -184 0
-33 -185 0
-34 -186 0
-61 -182 0
-62 -183 0
-63 -184 0
-64 -185 0
-65 -186 0
-106 -185 0
-144 -182 0
-145 -183 0
-146 -184 0
-147 -185 0
-148 -186 0
